; benchmark generated from python API
(set-info :status unknown)
(declare-datatypes ((IntState 0)) (((Mk1 (val1 Int)) (Mk2 (val2 Int)))))
 (declare-fun c_main_~z~0 () Int)
(declare-fun c_main_~x~0 () Int)
(declare-fun c_main_~y~0 () Int)
(assert
 (let (($x215 (exists ((|v_main_#t~nondet2_7_st| IntState) (val!50 Int) )(exists ((|v_main_#t~nondet2_8_st| IntState) (val!51 Int) )(exists ((|v_main_#t~nondet2_5_st| IntState) (val!52 Int) )(exists ((|v_main_#t~nondet2_6_st| IntState) (val!53 Int) )(let ((?x106 (val2 |v_main_#t~nondet2_6_st|)))
 (let ((?x212 (* 4194304 ?x106)))
 (let ((?x61 (val2 |v_main_#t~nondet2_5_st|)))
 (let ((?x66 (* 4194304 ?x61)))
 (let ((?x17 (val2 |v_main_#t~nondet2_8_st|)))
 (let ((?x207 (* 4194304 ?x17)))
 (let ((?x29 (val2 |v_main_#t~nondet2_7_st|)))
 (let ((?x102 (* 4194304 ?x29)))
 (let (($x112 (not (= |v_main_#t~nondet2_6_st| (Mk1 val!53)))))
 (let (($x98 (not (= |v_main_#t~nondet2_5_st| (Mk1 val!52)))))
 (let (($x154 (not (= |v_main_#t~nondet2_8_st| (Mk1 val!51)))))
 (let (($x82 (not (= |v_main_#t~nondet2_7_st| (Mk1 val!50)))))
 (and $x82 $x154 $x98 $x112 (= (+ ?x102 ?x207 ?x66 ?x212) c_main_~z~0)))))))))))))))
 )
 )
 )
 ))
 (let (($x224 (exists ((|v_main_#t~nondet0_7_st| IntState) (val!46 Int) )(exists ((|v_main_#t~nondet0_8_st| IntState) (val!47 Int) )(exists ((|v_main_#t~nondet0_5_st| IntState) (val!48 Int) )(exists ((|v_main_#t~nondet0_6_st| IntState) (val!49 Int) )(let ((?x106 (val2 |v_main_#t~nondet0_6_st|)))
 (let ((?x201 (* 1048576 ?x106)))
 (let ((?x61 (val2 |v_main_#t~nondet0_5_st|)))
 (let ((?x161 (* 1048576 ?x61)))
 (let ((?x17 (val2 |v_main_#t~nondet0_8_st|)))
 (let ((?x72 (* 1048576 ?x17)))
 (let ((?x29 (val2 |v_main_#t~nondet0_7_st|)))
 (let ((?x67 (* 1048576 ?x29)))
 (let (($x112 (not (= |v_main_#t~nondet0_6_st| (Mk1 val!49)))))
 (let (($x98 (not (= |v_main_#t~nondet0_5_st| (Mk1 val!48)))))
 (let (($x154 (not (= |v_main_#t~nondet0_8_st| (Mk1 val!47)))))
 (let (($x82 (not (= |v_main_#t~nondet0_7_st| (Mk1 val!46)))))
 (and $x82 $x154 $x98 $x112 (= (+ ?x67 ?x72 ?x161 ?x201) c_main_~x~0)))))))))))))))
 )
 )
 )
 ))
 (let (($x19 (exists ((|v_main_#t~nondet1_8_st| IntState) (val!42 Int) )(exists ((|v_main_#t~nondet1_6_st| IntState) (val!43 Int) )(exists ((|v_main_#t~nondet1_7_st| IntState) (val!44 Int) )(exists ((|v_main_#t~nondet1_5_st| IntState) (val!45 Int) )(let ((?x133 (+ (* 2097152 (val2 |v_main_#t~nondet1_8_st|)) (* 2097152 (val2 |v_main_#t~nondet1_6_st|)) (* 2097152 (val2 |v_main_#t~nondet1_7_st|)) (* 2097152 (val2 |v_main_#t~nondet1_5_st|)))))
 (let (($x112 (not (= |v_main_#t~nondet1_5_st| (Mk1 val!45)))))
 (let (($x98 (not (= |v_main_#t~nondet1_7_st| (Mk1 val!44)))))
 (let (($x154 (not (= |v_main_#t~nondet1_6_st| (Mk1 val!43)))))
 (let (($x82 (not (= |v_main_#t~nondet1_8_st| (Mk1 val!42)))))
 (and $x82 $x154 $x98 $x112 (= ?x133 c_main_~y~0))))))))
 )
 )
 )
 ))
 (let (($x117 (exists ((|v_main_#t~nondet2_5| Int) )(exists ((|v_main_#t~nondet2_6| Int) )(= (+ (* 4194304 |v_main_#t~nondet2_5|) (* 4194304 |v_main_#t~nondet2_6|)) c_main_~z~0))
 )
 ))
 (let (($x99 (exists ((|v_main_#t~nondet0_5| Int) )(exists ((|v_main_#t~nondet0_6| Int) )(= c_main_~x~0 (+ (* 1048576 |v_main_#t~nondet0_5|) (* 1048576 |v_main_#t~nondet0_6|))))
 )
 ))
 (let (($x172 (exists ((|v_main_#t~nondet1_6| Int) )(exists ((|v_main_#t~nondet1_5| Int) )(= c_main_~y~0 (+ (* 2097152 |v_main_#t~nondet1_6|) (* 2097152 |v_main_#t~nondet1_5|))))
 )
 ))
 (and (and $x172 $x99 $x117) (not (and $x19 $x224 $x215))))))))))
(check-sat)
